WARNING: for repeatability, setting FPU to use double precision
============================[ Problem Statistics ]=============================
|                                                                             |
|  Number of variables:         18607                                         |
|  Number of clauses:           52440                                         |
|  Parse time:                   0.02 s                                       |
|                                                                             |
============================[ Search Statistics ]==============================
| Conflicts |          ORIGINAL         |          LEARNT          | Progress |
|           |    Vars  Clauses Literals |    Limit  Clauses Lit/Cl |          |
===============================================================================
|       100 |   17257    51167   119017 |    18761       92      5 |  7.255 % |
|       250 |   17234    50940   118522 |    20637      239      6 |  7.379 % |
|       475 |   17207    50940   118522 |    22701      463      7 |  7.524 % |
|       812 |   17191    50780   118164 |    24971      799      7 |  7.610 % |
|      1318 |   17176    50725   118043 |    27468     1297      8 |  7.691 % |
|      2077 |   17159    50655   117888 |    30215     2055     10 |  7.782 % |
===============================================================================
restarts              : 15
conflicts             : 3117           (14168 /sec)
decisions             : 12751          (0.00 % random) (57959 /sec)
propagations          : 3239835        (14726523 /sec)
conflict literals     : 35949          (28.71 % deleted)
Memory used           : 22.00 MB
CPU time              : 0.22 s

SATISFIABLE
